InboundTrucks  = 50;
OutboundTrucks = 50;
InboundDoors   = 4;
OutboundDoors  = 4;
ReleaseTime    = [1,2,2,11,5,9,8,19,6,19,24,94,107,40,75,101,70,112,85,67,89,76,84,54,24,23,66,79,60,68,74,87,41,91,42,50,49,23,42,61,42,37,85,85,66,85,106,91,43,77];
UnloadTime     = [13,14,11,8,7,7,9,12,7,15,28,29,12,32,23,26,11,17,17,35,11,23,10,28,27,31,14,34,28,15,19,24,34,30,35,30,18,12,26,28,30,32,24,29,19,32,35,12,13,23];
LoadTime       = [6,15,6,11,10,14,7,14,11,6,25,12,15,11,13,12,23,12,25,11,25,18,10,11,16,15,13,12,12,17,10,17,11,17,25,20,22,25,15,19,16,22,10,23,14,11,12,18,20,23];
TransferTime   = [| 0,0,0,1,3,0,3,0,2,3,0,0,0,0,0,0,0,0,0,0,0,0,0,0,0,0,0,0,0,0,0,0,0,0,0,0,0,0,0,0,0,0,0,0,0,0,0,0,0,0 | 0,2,2,0,0,4,2,0,0,3,0,0,0,0,0,0,0,0,0,0,0,5,0,0,0,0,0,0,0,0,0,0,0,0,0,0,0,0,0,0,0,0,0,0,0,4,0,0,0,0 | 1,1,4,1,1,4,2,1,2,1,0,0,0,0,0,0,0,0,0,0,0,0,0,0,0,0,0,0,0,0,0,0,0,0,6,0,0,0,0,0,0,0,0,0,0,0,0,0,0,0 | 1,0,1,0,3,2,4,3,4,4,0,0,0,0,0,0,0,0,0,0,0,0,0,0,0,0,0,0,0,0,0,0,0,0,0,0,0,0,0,0,0,0,0,0,0,0,0,0,0,0 | 0,0,0,0,1,4,0,4,2,0,0,0,0,0,0,0,0,0,0,0,0,0,0,0,0,0,0,0,0,0,0,0,0,0,0,0,0,0,0,0,0,0,0,0,0,0,0,0,0,0 | 1,2,2,0,4,0,1,3,0,2,0,0,0,0,0,0,0,0,0,0,0,0,0,0,0,0,0,0,0,0,0,0,0,0,4,0,0,0,0,0,0,0,0,0,0,6,0,0,0,8 | 0,0,1,3,0,1,2,0,0,4,0,0,0,0,0,0,0,0,0,0,0,0,0,0,0,0,0,0,0,0,0,0,0,0,0,0,6,0,0,0,0,0,0,0,0,0,0,0,0,0 | 0,0,3,2,0,0,3,0,3,3,0,0,0,8,0,0,0,0,0,0,0,0,0,0,0,0,0,0,0,0,0,0,0,0,0,0,0,0,0,0,0,0,0,0,0,0,0,0,0,0 | 4,0,3,0,0,1,1,0,4,4,0,0,0,0,0,0,0,0,0,0,0,0,0,0,0,0,0,0,0,0,0,0,0,0,0,0,0,0,0,0,0,0,0,0,0,0,0,0,0,0 | 0,0,2,0,3,0,0,4,4,3,0,0,0,0,0,0,0,0,0,0,0,0,0,0,0,0,0,0,0,0,0,0,0,0,0,0,0,7,0,0,0,0,0,0,0,0,0,0,0,7 | 0,7,0,0,0,0,4,0,4,4,0,0,0,6,0,0,8,0,0,0,0,0,8,0,0,0,0,0,4,0,0,4,0,0,0,0,8,0,3,8,8,0,7,6,8,0,0,0,0,0 | 6,0,0,4,6,0,0,0,3,0,0,0,0,4,0,0,0,0,0,4,3,7,0,4,0,0,0,8,0,0,5,0,7,0,0,0,5,0,0,0,0,7,0,8,0,6,6,0,0,0 | 0,0,0,0,0,0,5,8,0,4,0,0,0,0,3,0,5,0,3,7,0,3,0,7,0,0,8,4,0,0,0,4,0,0,0,0,0,8,8,0,5,0,0,0,0,0,0,0,5,0 | 4,0,0,3,0,0,0,0,0,0,3,0,3,0,0,5,0,0,5,7,3,0,7,0,6,5,0,0,0,0,0,0,0,0,0,5,0,4,0,0,0,0,3,6,0,8,0,0,5,7 | 0,0,0,0,5,0,0,0,6,0,0,0,4,6,0,0,0,6,0,8,0,6,3,8,0,4,0,0,0,4,6,7,7,8,4,0,0,3,0,0,7,0,0,8,0,6,0,5,0,0 | 0,0,0,0,0,4,0,0,5,0,3,0,0,5,0,0,0,7,7,6,0,4,0,8,8,0,0,0,7,7,0,5,3,5,0,0,0,0,0,0,0,0,8,0,0,3,6,8,4,0 | 5,0,0,4,6,3,0,0,7,8,0,7,0,0,0,7,0,0,0,3,0,4,3,0,0,6,4,6,0,0,0,0,0,0,7,4,0,0,0,6,0,0,6,0,3,0,0,4,6,8 | 0,0,3,0,0,0,0,0,3,7,0,8,0,0,0,7,3,0,5,4,3,0,5,5,5,0,0,0,6,0,0,0,0,6,0,0,0,3,8,8,0,0,0,0,0,0,5,0,4,4 | 0,7,0,0,0,0,0,0,0,0,0,0,0,3,0,6,0,0,0,0,0,0,5,0,0,6,6,0,0,0,0,0,0,0,0,7,0,0,0,0,0,0,3,7,0,3,0,0,0,0 | 0,0,0,6,5,0,6,5,0,0,3,0,0,6,0,0,8,0,0,3,7,0,0,0,8,0,0,5,7,0,0,7,0,0,7,0,4,0,0,7,0,0,0,7,0,0,0,0,0,0 | 5,0,0,5,0,0,0,0,0,0,8,4,5,4,3,7,0,0,0,8,0,0,6,0,8,0,0,6,0,0,0,0,0,8,0,0,7,0,7,3,0,7,0,6,0,8,0,0,7,5 | 0,0,3,0,0,4,0,7,0,6,0,7,5,0,0,3,0,5,0,0,5,0,0,0,0,5,0,4,4,0,6,3,5,7,0,0,0,0,6,0,0,0,0,5,0,0,0,0,0,0 | 0,0,3,0,0,8,0,0,0,5,0,3,0,0,5,0,0,3,8,0,0,7,5,0,5,0,0,0,0,8,0,0,0,6,5,0,5,0,0,6,4,0,0,0,0,0,0,3,3,0 | 0,0,6,3,0,0,0,8,4,0,0,0,7,0,0,0,5,3,0,3,0,0,0,0,0,7,0,0,3,0,0,0,0,0,6,0,6,5,4,0,0,0,0,5,0,0,0,3,5,6 | 0,0,5,5,0,6,0,7,0,0,0,5,5,0,0,0,0,6,0,0,0,0,4,7,0,0,0,0,0,0,0,8,0,0,4,6,0,0,0,0,0,6,8,3,5,0,0,0,0,0 | 0,3,0,0,0,0,0,0,0,0,0,0,0,0,0,6,4,5,0,5,3,6,3,0,0,6,0,4,6,0,0,0,0,8,5,0,0,0,0,3,0,0,0,0,0,6,0,5,0,8 | 0,4,0,5,0,0,0,0,3,4,0,0,0,6,0,3,0,0,0,0,0,4,0,0,0,0,6,6,0,0,0,0,0,0,0,8,0,0,0,0,0,0,0,4,0,0,0,5,0,0 | 0,0,5,0,0,0,0,3,7,0,0,3,0,0,0,5,0,0,0,5,0,0,6,0,0,5,6,0,0,8,0,0,3,0,0,0,0,0,0,4,0,7,0,0,0,0,0,0,0,3 | 4,0,0,0,3,0,0,5,4,8,0,0,4,0,7,0,7,0,0,6,0,5,7,0,0,7,0,7,0,3,0,0,0,0,7,0,7,0,7,6,4,0,0,8,6,6,0,5,0,0 | 0,0,7,0,0,0,0,0,6,0,0,0,0,0,0,0,5,0,3,4,6,5,0,0,0,5,5,7,7,0,0,5,0,0,5,5,0,0,5,8,0,0,0,0,7,0,6,3,0,6 | 8,3,0,7,0,0,0,0,4,8,0,4,0,6,0,0,0,7,0,0,0,8,5,0,0,0,6,5,0,8,0,6,0,0,0,0,0,0,0,0,0,0,0,5,0,0,0,0,0,0 | 8,0,0,0,0,0,0,0,0,4,0,0,0,0,3,8,0,7,0,8,8,0,0,4,0,0,4,4,0,6,7,0,6,5,0,0,0,6,0,0,6,0,0,0,0,0,0,0,0,0 | 7,0,6,0,0,0,5,4,4,0,0,0,5,0,0,0,0,5,0,0,3,3,3,5,0,0,4,5,5,0,0,3,6,0,6,0,0,5,0,8,3,0,0,0,0,8,0,0,0,4 | 4,0,6,5,7,0,6,6,0,0,0,4,0,0,0,0,0,3,0,0,0,0,0,0,0,0,0,0,7,0,8,0,0,3,0,0,6,0,7,0,0,4,3,0,0,4,7,0,0,0 | 0,0,0,7,0,0,7,0,3,8,0,0,0,0,6,0,3,4,0,6,8,0,0,3,0,3,0,0,7,0,0,0,0,0,0,3,0,0,0,5,3,0,3,0,0,0,0,8,0,0 | 8,0,0,7,6,0,0,7,7,0,0,6,6,6,0,6,0,7,0,0,0,7,3,0,0,0,0,0,8,3,0,3,0,0,3,8,0,0,0,6,0,0,8,0,7,0,6,0,0,0 | 8,0,0,6,7,0,0,0,0,0,0,0,3,0,0,0,7,0,0,0,0,4,0,7,5,3,0,6,8,0,0,6,0,4,0,0,3,0,7,0,8,0,0,6,3,0,0,0,3,0 | 6,0,0,0,0,0,3,0,0,0,6,0,0,7,6,0,0,3,0,0,0,7,0,6,4,0,0,0,0,0,0,0,0,0,0,0,0,0,0,7,6,0,3,6,0,0,8,0,3,3 | 0,0,0,5,5,0,0,5,0,0,0,0,0,4,0,4,8,0,6,0,0,8,0,0,0,0,4,6,0,0,0,4,4,0,0,0,0,0,0,0,0,8,7,0,0,7,0,3,5,0 | 0,0,0,0,0,6,7,8,4,6,8,0,0,0,5,0,0,4,7,0,0,5,0,0,0,5,5,0,8,0,0,0,0,7,0,0,5,4,0,0,0,0,0,0,3,0,3,3,0,0 | 0,0,0,0,0,0,0,5,0,0,0,3,0,0,0,4,7,7,8,8,0,0,0,0,0,0,4,0,0,3,0,4,7,0,6,0,0,3,0,0,8,4,5,0,0,7,0,3,0,0 | 0,0,0,7,7,0,0,7,7,8,0,0,3,5,3,3,0,8,5,6,4,7,0,0,6,0,6,0,5,0,0,0,0,0,8,0,7,0,0,0,0,3,0,0,8,0,0,4,3,5 | 7,0,8,5,5,5,0,0,7,5,5,0,0,0,3,0,7,0,0,5,0,0,7,3,0,0,0,5,0,0,6,0,0,6,0,4,6,0,5,8,0,0,8,0,0,0,0,8,0,6 | 4,0,0,0,0,0,0,6,3,0,6,0,0,0,8,0,0,3,0,6,0,0,4,4,0,7,0,0,0,8,0,0,0,8,0,0,3,0,0,0,0,0,0,0,8,0,5,4,3,0 | 0,0,0,7,3,3,0,0,0,0,5,0,0,0,0,0,0,7,5,0,0,6,0,0,6,0,0,4,0,0,0,0,0,0,0,8,3,0,0,0,3,0,8,5,0,0,0,0,0,0 | 0,0,0,0,0,0,0,8,4,0,0,0,0,0,0,0,0,0,0,0,3,0,0,3,0,0,4,0,0,0,0,0,0,4,6,0,0,0,0,0,0,3,7,6,0,0,0,6,0,0 | 0,0,0,6,3,0,5,0,0,0,0,0,0,0,0,0,0,0,0,0,0,0,0,0,4,5,0,0,3,0,6,0,8,6,0,0,4,0,5,0,0,0,8,3,0,0,0,6,0,0 | 0,0,5,5,0,0,0,5,0,0,4,0,0,8,0,0,0,5,4,5,0,0,6,0,5,0,0,6,8,0,6,4,0,5,0,0,8,0,0,5,0,0,0,4,0,6,5,0,5,0 | 0,8,0,0,0,0,0,0,0,0,0,7,0,0,5,0,3,0,0,0,0,0,0,0,0,4,7,8,0,0,0,3,0,0,8,0,0,0,7,0,4,5,0,6,0,7,5,0,0,3 | 4,0,0,0,8,0,8,0,0,0,0,4,3,3,0,5,5,0,0,0,0,5,8,5,3,7,0,0,0,5,6,3,0,4,3,0,4,0,0,0,0,4,8,3,0,0,0,0,0,0 |];
